% seed = 2345711

mint = 39;
% maxt = 113;

nActs = 22;
dur = [0,1,3,3,4,9,5,6,9,8,10,9,2,1,9,1,10,9,9,2,3,0];

nSkills = 4;
sreq = [| 0,0,0,0,
	| 3,1,1,3,
	| 1,0,2,0,
	| 0,2,3,3,
	| 0,1,2,2,
	| 1,1,2,2,
	| 0,2,0,3,
	| 1,3,2,1,
	| 0,1,0,3,
	| 2,1,0,0,
	| 1,2,2,2,
	| 3,0,3,0,
	| 1,3,1,0,
	| 0,3,3,0,
	| 1,2,2,3,
	| 0,1,3,2,
	| 0,3,3,3,
	| 3,0,2,3,
	| 3,1,1,1,
	| 0,0,3,1,
	| 1,1,2,2,
	| 0,0,0,0, |];

nResources = 25;
mastery = [| false,false,false,true,
	| true,false,true,true,
	| true,false,false,false,
	| false,true,true,true,
	| true,true,true,false,
	| false,true,true,false,
	| true,true,false,true,
	| false,true,true,false,
	| true,true,false,false,
	| false,true,true,false,
	| true,true,false,true,
	| true,false,false,true,
	| false,true,true,true,
	| true,true,true,false,
	| true,true,true,false,
	| true,true,false,true,
	| true,false,false,true,
	| false,true,false,true,
	| true,true,true,false,
	| true,true,true,false,
	| false,false,true,false,
	| false,false,true,true,
	| false,false,true,false,
	| false,true,true,true,
	| false,true,true,true, |];

nPrecs = 37;
pred = [1,1,1,2,2,3,3,3,4,5,5,6,6,6,7,7,7,8,9,9,10,11,11,11,12,12,13,14,15,16,16,17,18,18,19,20,21];
succ = [2,3,4,5,6,17,12,8,11,9,7,10,19,20,19,16,8,15,18,12,14,18,14,15,13,14,20,21,21,17,20,18,19,21,22,22,22];

nUnrels = 99;
unpred = [2,2,2,3,3,3,3,3,3,3,3,4,4,4,4,4,4,4,4,4,4,4,5,5,5,6,6,6,6,6,6,6,6,6,6,7,7,7,7,7,7,8,8,8,8,8,8,8,8,8,8,8,9,9,9,9,9,10,10,10,10,10,10,10,10,10,11,11,11,11,11,12,12,12,12,12,13,13,13,13,13,13,13,14,14,14,14,14,14,15,15,15,15,15,17,18,19,19,20];
unsucc = [3,4,11,4,5,6,7,9,10,11,16,5,6,7,8,9,10,12,13,16,17,20,6,10,11,7,8,9,11,12,13,15,16,17,18,9,10,11,12,13,14,9,10,11,12,13,14,16,17,18,19,20,10,11,15,16,17,11,12,13,15,16,17,18,19,20,12,13,16,17,20,15,16,17,18,19,14,15,16,17,18,19,21,15,16,17,18,19,20,16,17,18,19,20,20,20,20,21,21];

USEFUL_RES = [{},
	{1,2,3,4,5,6,7,8,9,10,11,12,13,14,15,16,17,18,19,20,21,22,23,24,25},
	{2,3,4,5,6,7,8,9,10,11,12,13,14,15,16,17,19,20,21,22,23,24,25},
	{1,2,4,5,6,7,8,9,10,11,12,13,14,15,16,17,18,19,20,21,22,23,24,25},
	{1,2,4,5,6,7,8,9,10,11,12,13,14,15,16,17,18,19,20,21,22,23,24,25},
	{1,2,3,4,5,6,7,8,9,10,11,12,13,14,15,16,17,18,19,20,21,22,23,24,25},
	{1,2,4,5,6,7,8,9,10,11,12,13,14,15,16,17,18,19,20,22,24,25},
	{1,2,3,4,5,6,7,8,9,10,11,12,13,14,15,16,17,18,19,20,21,22,23,24,25},
	{1,2,4,5,6,7,8,9,10,11,12,13,14,15,16,17,18,19,20,22,24,25},
	{2,3,4,5,6,7,8,9,10,11,12,13,14,15,16,17,18,19,20,24,25},
	{1,2,3,4,5,6,7,8,9,10,11,12,13,14,15,16,17,18,19,20,21,22,23,24,25},
	{2,3,4,5,6,7,8,9,10,11,12,13,14,15,16,17,19,20,21,22,23,24,25},
	{2,3,4,5,6,7,8,9,10,11,12,13,14,15,16,17,18,19,20,21,22,23,24,25},
	{2,4,5,6,7,8,9,10,11,13,14,15,16,18,19,20,21,22,23,24,25},
	{1,2,3,4,5,6,7,8,9,10,11,12,13,14,15,16,17,18,19,20,21,22,23,24,25},
	{1,2,4,5,6,7,8,9,10,11,12,13,14,15,16,17,18,19,20,21,22,23,24,25},
	{1,2,4,5,6,7,8,9,10,11,12,13,14,15,16,17,18,19,20,21,22,23,24,25},
	{1,2,3,4,5,6,7,8,9,10,11,12,13,14,15,16,17,18,19,20,21,22,23,24,25},
	{1,2,3,4,5,6,7,8,9,10,11,12,13,14,15,16,17,18,19,20,21,22,23,24,25},
	{1,2,4,5,6,7,8,10,11,12,13,14,15,16,17,18,19,20,21,22,23,24,25},
	{1,2,3,4,5,6,7,8,9,10,11,12,13,14,15,16,17,18,19,20,21,22,23,24,25},
	{}];

POTENTIAL_ACT = [{2,4,5,6,7,8,9,11,15,16,17,18,19,20,21},
	{2,3,4,5,6,7,8,9,10,11,12,13,14,15,16,17,18,19,20,21},
	{2,3,6,8,10,11,12,13,15,18,19,21},
	{2,3,4,5,6,7,8,9,10,11,12,13,14,15,16,17,18,19,20,21},
	{2,3,4,5,6,7,8,9,10,11,12,13,14,15,16,17,18,19,20,21},
	{2,3,4,5,6,7,8,9,10,11,12,13,14,15,16,17,18,19,20,21},
	{2,3,4,5,6,7,8,9,10,11,12,13,14,15,16,17,18,19,20,21},
	{2,3,4,5,6,7,8,9,10,11,12,13,14,15,16,17,18,19,20,21},
	{2,3,4,5,6,7,8,9,10,11,12,13,14,15,16,17,18,19,21},
	{2,3,4,5,6,7,8,9,10,11,12,13,14,15,16,17,18,19,20,21},
	{2,3,4,5,6,7,8,9,10,11,12,13,14,15,16,17,18,19,20,21},
	{2,3,4,5,6,7,8,9,10,11,12,13,15,16,17,18,19,20,21},
	{2,3,4,5,6,7,8,9,10,11,12,13,14,15,16,17,18,19,20,21},
	{2,3,4,5,6,7,8,9,10,11,12,13,14,15,16,17,18,19,20,21},
	{2,3,4,5,6,7,8,9,10,11,12,13,14,15,16,17,18,19,20,21},
	{2,3,4,5,6,7,8,9,10,11,12,13,14,15,16,17,18,19,20,21},
	{2,3,4,5,6,7,8,9,10,11,12,13,15,16,17,18,19,20,21},
	{2,4,5,6,7,8,9,10,11,13,14,15,16,17,18,19,20,21},
	{2,3,4,5,6,7,8,9,10,11,12,13,14,15,16,17,18,19,20,21},
	{2,3,4,5,6,7,8,9,10,11,12,13,14,15,16,17,18,19,20,21},
	{2,3,4,5,6,8,11,12,13,14,15,16,17,18,19,20,21},
	{2,3,4,5,6,7,8,9,11,12,13,14,15,16,17,18,19,20,21},
	{2,3,4,5,6,8,11,12,13,14,15,16,17,18,19,20,21},
	{2,3,4,5,6,7,8,9,10,11,12,13,14,15,16,17,18,19,20,21},
	{2,3,4,5,6,7,8,9,10,11,12,13,14,15,16,17,18,19,20,21}];
